p cnf 10 20
2 -1 -8 0
2 -8 -9 0
-8 7 5 0
1 3 -4 0
-4 9 -3 0
-9 -2 1 0
-5 3 -2 0
-4 -8 5 0
-2 4 7 0
-7 2 6 0
10 2 6 0
2 5 -7 0
7 -4 5 0
6 -4 -9 0
-8 3 1 0
6 -8 10 0
-6 -3 -8 0
-1 4 8 0
-2 -3 -5 0
5 -1 4 0
